--- Job AirAmbulance.gms Start 06/12/20 00:47:36 31.1.0 r55b6ce3 WEX-WEI x86 64bit/MS Windows
--- Applying:
    E:\31.1\gmsprmNT.txt
--- GAMS Parameters defined
    Input C:\Users\hasee\Documents\GitHub\GAMS-MIRO\AirAmbulance\AirAmbulance.gms
    ScrDir C:\Users\hasee\Documents\GitHub\GAMS-MIRO\AirAmbulance\225a\
    SysDir E:\31.1\
    CurDir C:\Users\hasee\Documents\GitHub\GAMS-MIRO\AirAmbulance\
    LogOption 3
    Trace C:\Users\hasee\Documents\GitHub\GAMS-MIRO\AirAmbulance\_sys_trace_airambulance.trc
    InputDir1 C:\Users\hasee\Documents\GitHub\GAMS-MIRO\AirAmbulance\
    TraceOpt 3
    ExecMode 0
    LstTitleLeftAligned 1
    IDCGDXInput _miro_gdxin_.gdx
    IDCGDXOutput _miro_gdxout_.gdx
GAMS 31.1.0   Copyright (C) 1987-2020 GAMS Development. All rights reserved
*** License has expired 3 days ago
Licensee: CS526 Advanced Linear Programming              G200210/0001AS-GEN
          Course License UW-Madison, Prof Ferris, Spring 2020        DCE515
          E:\31.1\gamslice.txt
          Evaluation license: Not for commercial or production use
--- Starting compilation
--- AirAmbulance.gms(4) 2 Mb
--- GDXin=C:\Users\hasee\Documents\GitHub\GAMS-MIRO\AirAmbulance\_miro_gdxin_.gdx
--- AirAmbulance.gms(72) 3 Mb
--- Starting execution: elapsed 0:00:00.007
--- AirAmbulance.gms(59) 4 Mb
--- Generating LP model AirAmbulance2
--- AirAmbulance.gms(60) 4 Mb
---   6 rows  21 columns  61 non-zeroes
--- Executing CPLEX: elapsed 0:00:00.063

IBM ILOG CPLEX   31.1.0 r55b6ce3 Released May 01, 2020 WEI x86 64bit/MS Window
--- GAMS/Cplex licensed for continuous and discrete problems.
Cplex 12.10.0.0

Reading data...
Starting Cplex...
Space for names approximately 0.00 Mb
Use option 'names no' to turn use of names off
Version identifier: 12.10.0.0 | 2019-11-26 | 843d4de2ae
CPXPARAM_Advance                                 0
CPXPARAM_Simplex_Display                         2
CPXPARAM_Threads                                 1
CPXPARAM_Parallel                                1
CPXPARAM_Simplex_Limits_Iterations               2000000000
CPXPARAM_TimeLimit                               1000
CPXPARAM_Tune_TimeLimit                          200
Tried aggregator 1 time.
LP Presolve eliminated 1 rows and 1 columns.
Reduced LP has 5 rows, 20 columns, and 40 nonzeros.
Presolve time = 0.00 sec. (0.01 ticks)

Iteration      Dual Objective            In Variable           Out Variable
     1            2236.067977                 z(5.4)      balance2(5) slack
     2            4198.618349                 z(5.2)      balance2(4) slack
LP status(1): optimal
Cplex Time: 0.00sec (det. 0.02 ticks)

Optimal solution found.
Objective :        4198.618349

--- Restarting execution
--- AirAmbulance.gms(60) 2 Mb
--- Reading solution for model AirAmbulance2
--- AirAmbulance.gms(72) 3 Mb
--- GDX File C:\Users\hasee\Documents\GitHub\GAMS-MIRO\AirAmbulance\_miro_gdxout_.gdx
*** Status: Normal completion
--- Job AirAmbulance.gms Stop 06/12/20 00:47:36 elapsed 0:00:00.261
